58 731
1 3 6 9 10 11 12 15 17 21 23 28 29 31 34 35 36 40 45 47 52 54 57
0 2 3 5 6 7 8 11 13 15 16 17 19 20 21 22 23 24 33 34 35 37 44 45 49 57
1 6 11 13 15 19 20 22 23 27 31 35 36 37 38 40 43 50 51 55 56
0 1 4 7 9 12 13 14 15 16 19 20 24 27 28 31 33 34 35 39 40 43 44 46 53 54 55 56
3 5 6 8 9 13 15 16 17 18 19 20 21 22 23 24 27 30 32 34 36 37 39 41 42 47 50 53 55 57
1 4 9 11 12 15 16 18 19 22 27 31 32 36 38 39 41 43 46 50 51 52 55 57
0 1 2 4 7 14 21 22 24 25 26 27 28 30 31 32 33 37 39 43 45 46 49 51 52 55 56
1 3 6 11 12 17 19 21 22 27 31 33 40 41 45 47 50 51 56
1 4 9 10 15 17 20 24 26 29 30 31 33 37 39 40 42 43 45 48 49 50 52 56
0 3 4 5 8 10 12 13 14 17 22 23 24 27 29 30 31 37 39 40 44 45 47 49 50 51 53 55 57
0 8 9 11 12 14 15 16 17 18 21 22 25 31 34 39 45 54 55 56 57
0 1 2 5 7 10 12 13 14 20 24 25 26 27 30 31 33 34 35 36 39 42 43 49 52 53 54 56
0 3 5 7 9 10 11 13 14 17 18 25 35 38 39 41 42 43 44 46 47 50 51 57
1 2 3 4 9 11 12 16 22 23 24 30 31 33 34 35 39 40 44 45 47 49 51 54 56 57
3 6 9 10 11 12 16 17 18 20 23 25 26 31 34 35 37 38 39 42 43 44 45 46 47 48 52 53 55 57
0 1 2 3 4 5 8 10 19 22 23 26 28 29 35 36 38 41 42 47 52 53 55
1 3 4 5 10 13 14 20 23 25 27 28 30 32 36 41 42 43 44 46 49 50 52 53 55 56
0 1 4 7 8 9 10 12 14 19 21 31 34 36 37 38 39 40 41 44 47 48 49 53 56
4 5 10 12 14 20 23 24 25 26 28 29 35 36 39 40 42 43 45 46 47 48 51 55 56 57
1 2 3 4 5 7 15 17 26 27 31 33 35 37 42 43 46 47 48 49 50 54
1 2 3 4 8 11 14 16 18 21 24 26 27 28 30 31 32 34 36 37 41 44 47 49 50 51 54 55
0 1 4 6 7 10 17 20 22 23 25 26 27 29 33 35 37 38 39 44 46 54 56 57
1 2 4 5 6 7 9 10 13 15 21 23 24 25 27 28 31 36 38 41 42 43 45 46 52 54 55 56 57
0 1 2 4 9 13 14 15 16 18 21 22 26 27 30 31 32 33 34 35 38 42 43 44 48 50 53 56 57
1 3 4 6 8 9 11 13 18 20 22 29 30 31 34 36 37 39 40 44 45 49 50 52 56 57
6 10 11 12 14 16 18 21 22 27 33 34 37 38 40 41 43 44 45 46 48 49 50 52 57
6 8 11 14 15 18 19 20 21 23 28 31 33 35 37 38 43 46 48 49 55 56 57
2 3 4 5 6 7 9 11 16 19 20 21 22 23 25 29 31 37 39 45 46 50 53 55 56 57
0 3 6 15 16 18 20 22 26 30 32 33 36 37 39 45 46 53 54 55 56
0 8 9 15 18 21 24 27 31 35 36 40 41 42 44 48 49 50 51 52 54 55 57
4 6 8 9 11 13 16 20 23 24 28 36 41 44 49 51 52
0 2 3 5 6 7 8 9 10 11 13 14 17 19 20 22 23 24 26 27 29 32 34 36 37 38 39 45 46 47 51 53 54 55 56 57
4 5 6 16 20 23 28 31 37 39 41 42 43 45 47 49 50 52 54 56 57
1 3 6 7 8 11 13 19 21 23 25 26 28 34 35 36 39 40 41 42 43 52
0 1 3 4 10 11 13 14 17 20 23 24 25 31 33 35 36 37 39 41 44 47 48 49 51 53 55 56
0 1 2 3 11 12 13 14 15 18 19 21 23 26 29 33 34 36 37 41 42 43 44 45 46 49 54 55 56
0 2 4 5 11 15 16 17 18 20 22 24 28 29 30 31 33 34 35 39 40 41 43 44 45 48 51 52 54 57
1 2 4 6 8 9 14 17 19 20 21 24 25 26 27 28 31 32 34 35 40 41 48 51 52 56 57
2 5 12 14 15 17 21 22 23 25 26 31 39 44 49 51 54 55 56 57
3 4 5 6 8 9 10 11 12 13 14 17 18 21 24 27 28 31 32 33 34 36 38 40 44 48 52 53 56
0 2 3 7 8 9 13 17 18 24 25 29 33 36 37 39 41 43 45 50 52
4 5 7 12 15 16 17 20 22 25 29 30 32 33 34 35 36 37 40 42 43 45 47 48 49 50 52 53 54
4 8 11 12 14 15 16 18 19 22 23 29 32 33 35 41 43 44 47 48 49 50 53 56
2 3 5 6 8 11 12 14 16 18 19 22 23 25 26 32 33 35 36 40 41 42 44 45 46 48 54 56 57
1 3 9 12 13 14 16 17 20 21 23 24 25 29 30 34 35 36 38 39 42 43 45 49 50 54 56
0 1 6 7 8 9 10 13 14 18 22 24 25 27 28 31 32 35 36 40 41 43 44 46 47 48 49 53 56 57
3 5 6 12 14 16 18 19 21 22 25 26 27 28 31 35 43 45 51 52
0 4 7 9 12 13 14 15 17 18 19 20 31 32 34 41 42 45 49 54 57
8 14 17 18 19 23 25 26 29 34 36 37 39 41 42 43 45 50
1 6 8 9 11 13 16 17 19 20 24 25 26 29 30 32 34 35 38 41 42 44 45 47 50 51 53 54
2 4 5 7 8 9 12 16 19 20 23 24 25 27 29 32 40 41 42 44 48 49 51 56
2 5 6 7 9 12 13 18 20 29 30 31 34 36 37 38 46 49 50 52 53 55
0 5 6 8 11 14 15 16 22 24 25 29 30 32 33 36 37 39 40 41 46 51 54 55 57
3 4 9 11 14 15 16 17 23 27 28 31 34 39 41 42 45 49 51 55
0 3 10 11 13 19 20 21 22 28 29 31 32 35 36 38 41 43 44 47 49 52 56
2 3 4 5 6 9 10 14 15 16 18 20 22 26 27 28 29 31 34 35 38 51 52 53 56
2 3 6 7 8 10 11 13 16 17 18 21 22 23 24 26 27 28 31 32 34 35 37 38 39 42 43 44 45 50 54 55 57
0 1 4 5 9 10 12 13 14 18 21 22 23 24 25 26 27 29 31 32 36 37 38 43 45 47 52 56
